Traveling Salesman Problem/TSP_generados/Aleatorio1620390977_11.tsp
NAME: Aleatorio1620390977_11.tsp
COMMENT: Randomly generated scenario
TYPE: TSP
DIMENSION: 11
EDGE_WEIGHT_TYPE: ATT
NODE_COORD_SECTION
1 47.15 27.84
2 7.59 27.82
3 33.99 18.25
4 13.36 13.17
5 38.09 24.88
6 16.08 42.13
7 21.82 17.94
8 45.23 45.75
9 2.54 12.16
10 26.7 48.82
11 41.34 30.19
