Traveling Salesman Problem/TSP_generados/Aleatorio1620390977_11.opt.tour
NAME: Aleatorio1620390977_11.opt.tour
COMMENT: Optimal solution for Aleatorio1620390977_11 (135.481127256036)
TYPE: TOUR
DIMENSION: 11
TOUR_SECTION
1 8 10 6 2 9 4 7 3 5 11
-1
EOF
